# hs035-i.mod (integer version)

var x {1..3} >= 0;
var y >= 0, <= 10, integer;

minimize obj: - 8*x[1] - 6*x[2] - 4*x[3] 
	      + 2*x[1]^2 + 2*x[2]^2 + x[3]^2 
              + 2*x[1]*x[2] + 2*x[1]*x[3] ;

subject to 

	constr1: x[1] + x[2] + 2*x[3] <= 3;
	equiv:   x[1] = y;
